(set-info :source |printed by MathSAT|)
(declare-fun ldv_module_refcounter () (_ BitVec 32))

*:
(assert (let ((.def_39819 (= ldv_module_refcounter (_ bv1 32)))).def_39819))
(assert (let ((.def_39824 (bvslt (_ bv1 32) ldv_module_refcounter))).def_39824))

